NAME : G100_1312_01
COMMENT : Generated CVRP instance (n=100)
TYPE : CVRP
DIMENSION : 101
EDGE_WEIGHT_TYPE : EUC_2D
CAPACITY : 5
NODE_COORD_SECTION
1    854  347 
2    763  226 
3    788  225 
4    923  398 
5    19   775 
6    735  731 
7    966  505 
8    637  778 
9    982  587 
10   718  797 
11   805  417 
12   967  781 
13   627  905 
14   324  803 
15   741  234 
16   294  295 
17   915  499 
18   288  865 
19   495  550 
20   443  360 
21   238  784 
22   935  111 
23   421  738 
24   899  536 
25   559  507 
26   289  820 
27   172  726 
28   555  976 
29   878  232 
30   18   460 
31   23   349 
32   649  146 
33   529  184 
34   635  159 
35   361  767 
36   27   714 
37   508  932 
38   651  130 
39   338  765 
40   589  774 
41   306  714 
42   366  948 
43   662  153 
44   808  262 
45   52   837 
46   555  875 
47   959  577 
48   940  591 
49   628  660 
50   117  258 
51   913  768 
52   421  776 
53   962  468 
54   670  641 
55   993  602 
56   152  169 
57   92   576 
58   373  619 
59   545  866 
60   88   261 
61   599  135 
62   595  131 
63   633  743 
64   821  931 
65   439  295 
66   918  464 
67   492  914 
68   967  551 
69   850  695 
70   949  652 
71   910  163 
72   585  150 
73   882  482 
74   724  198 
75   946  860 
76   628  184 
77   17   671 
78   1    836 
79   342  867 
80   573  641 
81   280  837 
82   851  207 
83   598  252 
84   210  900 
85   451  666 
86   662  175 
87   345  929 
88   666  563 
89   390  842 
90   670  942 
91   775  424 
92   446  880 
93   998  301 
94   423  201 
95   684  123 
96   467  747 
97   772  126 
98   544  875 
99   906  620 
100  933  363 
101  254  941 
DEMAND_SECTION
1    0   
2    1   
3    1   
4    1   
5    1   
6    1   
7    1   
8    1   
9    1   
10   1   
11   1   
12   1   
13   1   
14   1   
15   1   
16   1   
17   1   
18   1   
19   1   
20   1   
21   1   
22   1   
23   1   
24   1   
25   1   
26   1   
27   1   
28   1   
29   1   
30   1   
31   1   
32   1   
33   1   
34   1   
35   1   
36   1   
37   1   
38   1   
39   1   
40   1   
41   1   
42   1   
43   1   
44   1   
45   1   
46   1   
47   1   
48   1   
49   1   
50   1   
51   1   
52   1   
53   1   
54   1   
55   1   
56   1   
57   1   
58   1   
59   1   
60   1   
61   1   
62   1   
63   1   
64   1   
65   1   
66   1   
67   1   
68   1   
69   1   
70   1   
71   1   
72   1   
73   1   
74   1   
75   1   
76   1   
77   1   
78   1   
79   1   
80   1   
81   1   
82   1   
83   1   
84   1   
85   1   
86   1   
87   1   
88   1   
89   1   
90   1   
91   1   
92   1   
93   1   
94   1   
95   1   
96   1   
97   1   
98   1   
99   1   
100  1   
101  1   
DEPOT_SECTION
1
-1
EOF
